knapPI_6_1000_10000_512
n 1000
c 4432817
z 4432817
time 2.3
1,5775,5775,1
2,1425,1425,1
3,5584,5584,1
4,7855,7855,1
5,6346,6346,1
6,9653,9653,1
7,8501,8501,1
8,318,318,1
9,1029,1029,1
10,5262,5262,1
11,8651,8651,1
12,4538,4538,1
13,1114,1114,1
14,4914,4914,1
15,8068,8068,1
16,491,491,1
17,329,329,1
18,3381,3381,1
19,62,62,1
20,3794,3794,1
21,7209,7209,1
22,9481,9481,1
23,431,431,1
24,8899,8899,1
25,3409,3409,1
26,2393,2393,1
27,3054,3054,1
28,1144,1144,1
29,1181,1181,1
30,4484,4484,1
31,3822,3822,1
32,916,916,1
33,3254,3254,1
34,8004,8004,1
35,722,722,1
36,8898,8898,1
37,2841,2841,1
38,9031,9031,1
39,1740,1740,1
40,8957,8957,1
41,6086,6086,1
42,763,763,1
43,7770,7770,1
44,1677,1677,1
45,2307,2307,1
46,396,396,1
47,7534,7534,1
48,8809,8809,1
49,8148,8148,1
50,4427,4427,1
51,4679,4679,1
52,1593,1593,1
53,1084,1084,1
54,1940,1940,1
55,2950,2950,1
56,9247,9247,1
57,8287,8287,1
58,7208,7208,1
59,8389,8389,1
60,1707,1707,1
61,3393,3393,1
62,1687,1687,1
63,1931,1931,1
64,9289,9289,1
65,9831,9831,1
66,9502,9502,1
67,3781,3781,1
68,6740,6740,1
69,2153,2153,1
70,4865,4865,1
71,685,685,1
72,8334,8334,1
73,5521,5521,1
74,4995,4995,1
75,5649,5649,1
76,7876,7876,1
77,2909,2909,1
78,2286,2286,1
79,4607,4607,1
80,9163,9163,1
81,7961,7961,1
82,6346,6346,1
83,649,649,1
84,5141,5141,1
85,5918,5918,1
86,8221,8221,1
87,5463,5463,1
88,5494,5494,1
89,8746,8746,1
90,6760,6760,1
91,4403,4403,1
92,3758,3758,1
93,7306,7306,1
94,1398,1398,1
95,4516,4516,1
96,7884,7884,1
97,4839,4839,1
98,8622,8622,1
99,6531,6531,1
100,2746,2746,1
101,9613,9613,1
102,6792,6792,1
103,895,895,1
104,4918,4918,1
105,9439,9439,1
106,9843,9843,1
107,4119,4119,1
108,904,904,1
109,9986,9986,1
110,5879,5879,1
111,7366,7366,1
112,5882,5882,1
113,1952,1952,1
114,7060,7060,1
115,2226,2226,1
116,9972,9972,1
117,6426,6426,1
118,356,356,1
119,1691,1691,1
120,6637,6637,1
121,1784,1784,1
122,3929,3929,1
123,2241,2241,1
124,7739,7739,1
125,6815,6815,1
126,1248,1248,1
127,7041,7041,1
128,118,118,1
129,907,907,1
130,5581,5581,1
131,7042,7042,1
132,3968,3968,1
133,9939,9939,1
134,9077,9077,1
135,1850,1850,1
136,2490,2490,1
137,2822,2822,1
138,3614,3614,1
139,8897,8897,1
140,3870,3870,1
141,4129,4129,1
142,8420,8420,1
143,9298,9298,1
144,8437,8437,1
145,8411,8411,1
146,1293,1293,1
147,2327,2327,1
148,2626,2626,1
149,7874,7874,1
150,338,338,1
151,9533,9533,1
152,8899,8899,1
153,5446,5446,1
154,4122,4122,1
155,3040,3040,1
156,140,140,1
157,6939,6939,1
158,4983,4983,1
159,9579,9579,1
160,4779,4779,1
161,8215,8215,1
162,3065,3065,1
163,1252,1252,1
164,2110,2110,1
165,3603,3603,1
166,9196,9196,1
167,1616,1616,1
168,7093,7093,1
169,1043,1043,1
170,9931,9931,1
171,9254,9254,1
172,9621,9621,1
173,4968,4968,1
174,5833,5833,1
175,5717,5717,1
176,244,244,1
177,2608,2608,1
178,4143,4143,1
179,6215,6215,1
180,2231,2231,1
181,7521,7521,1
182,9558,9558,1
183,2395,2395,1
184,3274,3274,1
185,3764,3764,1
186,5745,5745,1
187,2869,2869,1
188,6818,6818,1
189,7066,7066,1
190,6726,6726,1
191,6275,6275,1
192,7263,7263,1
193,1194,1194,1
194,7593,7593,1
195,3734,3734,1
196,605,605,1
197,3781,3781,1
198,6384,6384,1
199,7333,7333,1
200,3601,3601,1
201,4977,4977,1
202,7965,7965,1
203,220,220,1
204,7139,7139,1
205,4586,4586,1
206,7028,7028,1
207,2044,2044,1
208,8260,8260,1
209,1939,1939,1
210,2202,2202,1
211,4358,4358,1
212,9745,9745,1
213,2867,2867,1
214,6033,6033,1
215,8052,8052,1
216,7730,7730,1
217,2874,2874,1
218,2750,2750,1
219,7960,7960,1
220,7016,7016,1
221,628,628,1
222,4645,4645,1
223,8693,8693,1
224,5241,5241,1
225,3751,3751,1
226,9908,9908,1
227,2500,2500,1
228,119,119,1
229,7117,7117,1
230,6766,6766,1
231,4112,4112,1
232,5609,5609,1
233,1826,1826,1
234,2117,2117,1
235,7127,7127,1
236,552,552,1
237,7704,7704,1
238,7243,7243,1
239,9995,9995,1
240,7647,7647,1
241,7714,7714,1
242,2248,2248,1
243,672,672,1
244,984,984,1
245,1018,1018,1
246,9318,9318,1
247,2505,2505,1
248,8202,8202,1
249,3546,3546,1
250,5952,5952,1
251,2167,2167,1
252,877,877,1
253,8984,8984,1
254,9831,9831,1
255,5217,5217,1
256,5488,5488,1
257,8029,8029,1
258,7842,7842,1
259,103,103,1
260,174,174,1
261,7026,7026,1
262,483,483,1
263,5226,5226,1
264,5414,5414,1
265,6794,6794,1
266,2163,2163,1
267,7867,7867,1
268,1772,1772,1
269,5589,5589,1
270,5062,5062,1
271,1845,1845,1
272,8057,8057,1
273,8777,8777,1
274,2894,2894,1
275,32,32,1
276,8615,8615,1
277,4821,4821,1
278,4884,4884,1
279,8383,8383,1
280,5119,5119,1
281,8223,8223,1
282,7256,7256,1
283,9385,9385,1
284,4455,4455,1
285,1130,1130,1
286,5404,5404,1
287,3476,3476,1
288,3046,3046,1
289,4462,4462,1
290,6717,6717,1
291,1693,1693,1
292,4841,4841,1
293,3241,3241,1
294,9575,9575,1
295,7768,7768,1
296,212,212,1
297,7504,7504,1
298,6006,6006,1
299,1902,1902,1
300,3683,3683,1
301,2895,2895,1
302,9708,9708,1
303,7794,7794,1
304,4024,4024,1
305,938,938,1
306,9623,9623,1
307,7778,7778,1
308,3041,3041,1
309,4731,4731,1
310,4509,4509,1
311,4525,4525,1
312,8437,8437,1
313,6404,6404,1
314,7084,7084,1
315,3294,3294,1
316,9029,9029,1
317,5955,5955,1
318,3829,3829,1
319,1906,1906,1
320,8284,8284,1
321,4090,4090,1
322,539,539,1
323,5623,5623,1
324,9665,9665,1
325,2345,2345,1
326,3654,3654,1
327,551,551,1
328,5907,5907,1
329,156,156,1
330,7865,7865,1
331,1425,1425,1
332,332,332,1
333,1238,1238,1
334,3544,3544,1
335,7881,7881,1
336,3759,3759,1
337,7792,7792,1
338,9341,9341,1
339,8919,8919,1
340,2356,2356,1
341,1903,1903,1
342,21,21,1
343,4620,4620,1
344,4084,4084,1
345,5637,5637,1
346,3490,3490,1
347,4276,4276,1
348,7694,7694,1
349,3863,3863,1
350,6888,6888,1
351,592,592,1
352,8659,8659,1
353,9655,9655,1
354,8920,8920,1
355,9466,9466,1
356,3433,3433,1
357,3233,3233,1
358,5951,5951,1
359,9365,9365,1
360,9366,9366,1
361,693,693,1
362,8034,8034,1
363,1406,1406,1
364,5714,5714,1
365,3518,3518,1
366,7716,7716,1
367,3643,3643,1
368,9239,9239,1
369,7150,7150,1
370,6332,6332,1
371,9063,9063,1
372,509,509,1
373,1740,1740,1
374,4021,4021,1
375,5798,5798,1
376,9647,9647,1
377,6045,6045,1
378,3978,3978,1
379,84,84,1
380,1665,1665,1
381,9771,9771,1
382,4240,4240,1
383,274,274,1
384,3974,3974,1
385,1359,1359,1
386,5732,5732,1
387,9413,9413,1
388,3213,3213,1
389,8717,8717,1
390,6964,6964,1
391,8766,8766,1
392,1872,1872,1
393,9433,9433,1
394,1607,1607,1
395,573,573,1
396,2870,2870,1
397,6903,6903,1
398,32,32,1
399,4461,4461,1
400,4173,4173,1
401,776,776,1
402,96,96,1
403,9037,9037,1
404,1108,1108,1
405,4355,4355,1
406,3845,3845,1
407,9601,9601,1
408,8558,8558,1
409,846,846,1
410,4820,4820,1
411,1251,1251,1
412,7441,7441,1
413,823,823,1
414,4807,4807,1
415,4454,4454,1
416,3564,3564,1
417,4788,4788,1
418,4504,4504,1
419,8234,8234,1
420,1057,1057,1
421,3893,3893,1
422,7188,7188,1
423,8655,8655,1
424,1942,1942,1
425,8812,8812,1
426,852,852,1
427,252,252,1
428,5732,5732,1
429,6854,6854,1
430,9312,9312,1
431,3992,3992,1
432,6082,6082,1
433,1476,1476,1
434,5801,5801,1
435,206,206,1
436,8441,8441,1
437,5322,5322,1
438,550,550,1
439,5451,5451,1
440,8664,8664,1
441,294,294,1
442,2051,2051,1
443,3033,3033,1
444,3250,3250,1
445,8126,8126,1
446,4102,4102,1
447,4475,4475,1
448,3446,3446,1
449,1573,1573,1
450,9685,9685,1
451,1292,1292,1
452,504,504,1
453,8885,8885,1
454,7351,7351,1
455,9555,9555,1
456,7176,7176,1
457,7172,7172,1
458,2847,2847,1
459,3189,3189,1
460,4364,4364,1
461,3433,3433,1
462,6636,6636,1
463,7715,7715,1
464,2393,2393,1
465,8495,8495,1
466,5726,5726,1
467,5765,5765,1
468,8869,8869,1
469,4117,4117,1
470,9225,9225,1
471,1686,1686,1
472,5351,5351,1
473,200,200,1
474,224,224,1
475,4646,4646,1
476,4831,4831,1
477,8117,8117,1
478,9379,9379,1
479,2172,2172,1
480,8880,8880,1
481,892,892,1
482,1351,1351,1
483,2424,2424,1
484,7648,7648,1
485,107,107,1
486,9590,9590,1
487,1233,1233,1
488,4001,4001,1
489,2038,2038,1
490,1304,1304,1
491,2231,2231,1
492,6492,6492,1
493,7532,7532,1
494,7336,7336,1
495,6237,6237,1
496,1507,1507,1
497,4105,4105,1
498,150,150,1
499,9284,9284,1
500,1093,1093,1
501,1084,1084,1
502,340,340,1
503,8535,8535,1
504,8806,8806,1
505,7612,7612,1
506,8591,8591,1
507,4201,4201,1
508,9593,9593,1
509,60,60,1
510,9294,9294,1
511,4429,4429,1
512,5408,5408,1
513,3656,3656,1
514,1508,1508,1
515,2455,2455,1
516,1175,1175,1
517,2296,2296,1
518,7748,7748,1
519,3974,3974,1
520,9302,9302,1
521,5311,5311,1
522,2128,2128,1
523,9223,9223,1
524,8915,8915,1
525,6950,6950,1
526,9522,9522,1
527,8245,8245,1
528,6483,6483,1
529,7443,7443,1
530,1514,1514,1
531,7327,7327,1
532,4438,4438,1
533,9299,9299,1
534,8905,8905,1
535,249,249,1
536,4366,4366,1
537,9922,9922,1
538,5513,5513,1
539,1222,1222,1
540,16,16,1
541,9618,9618,1
542,7213,7213,1
543,5128,5128,1
544,4373,4373,1
545,8169,8169,1
546,9653,9653,1
547,3701,3701,1
548,9340,9340,1
549,6953,6953,1
550,2711,2711,1
551,4941,4941,1
552,1386,1386,1
553,2248,2248,1
554,7033,7033,1
555,2678,2678,1
556,7485,7485,1
557,3770,3770,1
558,8215,8215,1
559,6045,6045,1
560,4465,4465,1
561,7722,7722,1
562,44,44,1
563,9224,9224,1
564,6304,6304,1
565,2835,2835,1
566,1155,1155,1
567,1495,1495,1
568,357,357,1
569,5440,5440,1
570,1163,1163,1
571,5997,5997,1
572,9754,9754,1
573,2982,2982,1
574,1826,1826,1
575,7328,7328,1
576,4764,4764,1
577,1895,1895,1
578,9355,9355,1
579,4619,4619,1
580,4797,4797,1
581,613,613,1
582,6550,6550,1
583,5399,5399,1
584,4220,4220,1
585,161,161,1
586,4741,4741,1
587,9560,9560,1
588,1380,1380,1
589,2907,2907,1
590,1628,1628,1
591,2892,2892,1
592,8317,8317,1
593,4282,4282,1
594,5555,5555,1
595,2462,2462,1
596,6071,6071,1
597,8486,8486,1
598,5864,5864,1
599,3673,3673,1
600,3156,3156,1
601,4838,4838,1
602,8421,8421,1
603,98,98,1
604,3085,3085,1
605,2272,2272,1
606,3062,3062,1
607,577,577,1
608,1988,1988,1
609,7257,7257,1
610,8315,8315,1
611,4524,4524,1
612,9596,9596,1
613,8610,8610,1
614,5892,5892,1
615,6041,6041,1
616,603,603,1
617,9016,9016,1
618,1770,1770,1
619,3552,3552,1
620,5685,5685,1
621,1831,1831,1
622,6600,6600,1
623,770,770,1
624,9178,9178,1
625,4184,4184,1
626,4817,4817,1
627,9889,9889,1
628,6166,6166,1
629,9176,9176,1
630,9436,9436,1
631,3401,3401,1
632,9155,9155,1
633,1121,1121,1
634,9357,9357,1
635,4385,4385,1
636,244,244,1
637,3353,3353,1
638,6017,6017,1
639,5314,5314,1
640,2186,2186,1
641,584,584,1
642,1832,1832,1
643,3553,3553,1
644,4634,4634,1
645,9417,9417,1
646,4663,4663,1
647,2817,2817,1
648,8580,8580,1
649,9126,9126,1
650,5023,5023,1
651,2851,2851,1
652,604,604,1
653,8295,8295,1
654,7373,7373,1
655,834,834,1
656,5985,5985,1
657,241,241,1
658,3413,3413,1
659,7032,7032,1
660,5098,5098,1
661,7663,7663,1
662,3291,3291,1
663,5399,5399,1
664,1814,1814,1
665,9318,9318,1
666,9908,9908,1
667,1074,1074,1
668,6029,6029,1
669,7698,7698,1
670,528,528,1
671,9511,9511,1
672,8791,8791,1
673,802,802,1
674,9588,9588,1
675,3739,3739,1
676,84,84,1
677,987,987,1
678,68,68,1
679,2777,2777,1
680,9454,9454,1
681,9287,9287,1
682,5213,5213,1
683,8529,8529,1
684,8194,8194,1
685,4733,4733,1
686,5456,5456,1
687,9676,9676,1
688,2368,2368,1
689,7133,7133,1
690,4374,4374,1
691,4174,4174,1
692,6206,6206,1
693,1817,1817,1
694,7734,7734,1
695,1410,1410,1
696,1189,1189,1
697,7044,7044,1
698,5354,5354,1
699,7843,7843,1
700,9829,9829,1
701,5972,5972,1
702,7058,7058,1
703,3692,3692,1
704,4359,4359,1
705,3440,3440,1
706,7013,7013,1
707,7859,7859,1
708,2987,2987,1
709,7426,7426,1
710,3987,3987,1
711,6933,6933,1
712,203,203,1
713,9855,9855,1
714,345,345,1
715,795,795,1
716,2452,2452,1
717,7827,7827,1
718,7684,7684,1
719,9106,9106,1
720,5341,5341,1
721,2616,2616,1
722,5200,5200,1
723,2720,2720,1
724,2154,2154,1
725,480,480,1
726,6885,6885,1
727,1498,1498,1
728,9243,9243,1
729,8192,8192,1
730,6708,6708,1
731,2582,2582,1
732,6219,6219,1
733,6598,6598,1
734,5436,5436,1
735,4279,4279,1
736,1096,1096,1
737,3541,3541,1
738,5321,5321,1
739,481,481,1
740,8484,8484,1
741,4953,4953,1
742,8042,8042,1
743,692,692,1
744,6289,6289,1
745,7978,7978,1
746,4988,4988,1
747,2545,2545,1
748,4434,4434,1
749,9929,9929,1
750,9280,9280,1
751,1609,1609,1
752,7255,7255,1
753,2592,2592,1
754,7236,7236,1
755,6321,6321,1
756,3146,3146,1
757,8661,8661,1
758,1592,1592,1
759,9179,9179,1
760,7576,7576,1
761,3154,3154,1
762,5487,5487,1
763,474,474,1
764,4387,4387,1
765,1036,1036,1
766,4979,4979,1
767,8950,8950,1
768,6730,6730,1
769,8190,8190,1
770,5800,5800,1
771,5516,5516,1
772,5824,5824,1
773,4018,4018,1
774,1239,1239,1
775,602,602,1
776,9812,9812,1
777,7459,7459,1
778,5752,5752,1
779,1870,1870,1
780,9130,9130,1
781,8837,8837,1
782,3791,3791,1
783,9872,9872,1
784,3120,3120,1
785,4453,4453,1
786,9225,9225,1
787,7058,7058,1
788,3448,3448,1
789,8515,8515,1
790,3138,3138,1
791,4655,4655,1
792,7641,7641,1
793,754,754,1
794,3581,3581,1
795,7340,7340,1
796,6561,6561,1
797,1646,1646,1
798,459,459,1
799,1997,1997,1
800,2888,2888,1
801,7934,7934,1
802,1954,1954,1
803,7823,7823,1
804,3500,3500,1
805,9037,9037,1
806,3191,3191,1
807,3678,3678,1
808,126,126,1
809,8665,8665,1
810,6583,6583,1
811,9750,9750,1
812,3752,3752,1
813,190,190,1
814,6225,6225,1
815,2874,2874,1
816,4810,4810,1
817,3819,3819,1
818,5759,5759,1
819,3621,3621,1
820,8587,8587,1
821,4590,4590,1
822,206,206,1
823,2328,2328,1
824,1384,1384,1
825,5171,5171,1
826,3436,3436,1
827,8015,8015,1
828,9305,9305,1
829,5115,5115,1
830,9438,9438,1
831,2572,2572,1
832,7712,7712,1
833,6795,6795,1
834,289,289,1
835,4074,4074,1
836,3694,3694,1
837,8502,8502,1
838,2875,2875,1
839,9081,9081,1
840,8377,8377,1
841,7225,7225,1
842,6946,6946,1
843,2017,2017,1
844,4638,4638,1
845,9685,9685,1
846,5881,5881,1
847,9994,9994,1
848,8240,8240,1
849,4060,4060,1
850,3852,3852,1
851,4843,4843,1
852,542,542,1
853,1705,1705,1
854,7545,7545,1
855,9547,9547,1
856,160,160,1
857,5532,5532,1
858,9564,9564,1
859,4281,4281,1
860,9456,9456,1
861,6203,6203,1
862,7130,7130,1
863,5624,5624,1
864,9143,9143,1
865,9956,9956,1
866,5122,5122,1
867,8788,8788,1
868,3965,3965,1
869,8897,8897,1
870,4379,4379,1
871,1600,1600,1
872,4462,4462,1
873,9736,9736,1
874,4425,4425,1
875,8745,8745,1
876,2218,2218,1
877,1867,1867,1
878,2997,2997,1
879,5995,5995,1
880,7173,7173,1
881,2984,2984,1
882,125,125,1
883,5598,5598,1
884,2985,2985,1
885,4441,4441,1
886,2796,2796,1
887,7414,7414,1
888,7562,7562,1
889,3533,3533,1
890,5127,5127,1
891,8253,8253,1
892,3534,3534,1
893,9804,9804,1
894,2075,2075,1
895,3609,3609,1
896,5402,5402,1
897,5670,5670,1
898,1243,1243,1
899,1091,1091,1
900,1659,1659,1
901,4266,4266,1
902,8836,8836,1
903,8437,8437,1
904,8363,8363,1
905,3339,3339,1
906,1151,1151,1
907,2519,2519,1
908,6469,6469,1
909,8142,8142,1
910,765,765,1
911,6485,6485,1
912,7420,7420,1
913,5780,5780,1
914,4985,4985,1
915,9947,9947,1
916,2578,2578,1
917,2688,2688,1
918,7926,7926,1
919,7708,7708,1
920,8633,8633,1
921,2506,2506,1
922,9922,9922,1
923,9627,9627,1
924,399,399,1
925,9571,9571,1
926,4618,4618,1
927,3119,3119,1
928,1734,1734,1
929,2491,2491,1
930,1405,1405,1
931,3995,3995,1
932,8686,8686,1
933,2851,2851,1
934,4098,4098,1
935,375,375,1
936,2518,2518,1
937,8874,8874,1
938,1218,1218,1
939,7880,7880,1
940,7925,7925,1
941,3985,3985,1
942,3182,3182,1
943,7440,7440,1
944,198,198,1
945,5409,5409,1
946,7812,7812,1
947,9188,9188,1
948,8547,8547,1
949,9027,9027,1
950,8161,8161,1
951,338,338,1
952,6062,6062,1
953,1538,1538,1
954,9300,9300,1
955,3915,3915,1
956,5244,5244,1
957,8394,8394,1
958,2823,2823,1
959,3040,3040,1
960,9526,9526,1
961,3062,3062,1
962,4149,4149,1
963,9081,9081,1
964,2089,2089,1
965,5781,5781,1
966,5943,5943,1
967,779,779,1
968,6567,6567,1
969,9738,9738,1
970,1716,1716,1
971,1075,1075,1
972,4533,4533,1
973,7793,7793,1
974,4361,4361,1
975,76,76,1
976,2234,2234,1
977,8009,8009,1
978,8114,8114,1
979,8955,8955,1
980,2174,2174,1
981,3089,3089,1
982,201,201,1
983,9939,9939,1
984,5064,5064,1
985,688,688,1
986,1142,1142,1
987,8580,8580,1
988,8958,8958,1
989,1995,1995,1
990,7139,7139,1
991,6659,6659,1
992,3509,3509,1
993,1345,1345,1
994,8442,8442,1
995,4488,4488,1
996,6143,6143,1
997,4180,4180,1
998,4207,4207,1
999,5299,5299,1
1000,892,892,1
